(set-logic HORN)
(declare-fun state (Int Int Int (Array Int Int) (Array Int Int) (Array Int Int) Int Int Int Int Int Int (Array Int Int) (Array Int Int) Int Int Int Int Int Int Int Int Int Int Int Int Int Int Bool Bool Bool) Bool)
(assert (forall ((|A| Int) (|D1| Int) (|C| Int) (|E1| (Array Int Int)) (|E| (Array Int Int)) (|F| (Array Int Int)) (|F1| Int) (|H| Int) (|G1| Int) (|J| Int) (|H1| Int) (|L| Int) (|I1| (Array Int Int)) (|N| (Array Int Int)) (|J1| Int) (|P| Int) (|K1| Int) (|R| Int) (|S| Int) (|T| Int) (|U| Int) (|V| Int) (|W| Int) (|X| Int) (|Y| Int) (|Z| Int) (|A1| Int) (|B1| Int) (|C1| Bool) (|.loc.3| Bool) (|.loc.4| Bool) (|.x.100| Int) (|.x.102| Int) (|.x.104| (Array Int Int)) (|.x.105| (Array Int Int)) (|.x.107| Int) (|.x.109| Int) (|.x.111| Int) (|.x.113| (Array Int Int)) (|.x.117| Int) (|.x.115| Int) (|.loc.5| Bool) (|.loc.6| Bool) (|.x.119| Int) (|.x.125| Int) (|.x.122| Int) (|.x.124| Int) (|.x.127| Int) (|.x.101| Int) (|.x.121| Int) (|.x.110| Int) (|.x.118| Int) (|.x.126| Int) (|.x.114| Int) (|.x.106| Int) (|.x.120| Int) (|C1_3| Bool) (|.x.112| (Array Int Int)) (|.x.103| (Array Int Int)) (|.x.116| Int) (|.x.108| Int) (|.x.123| Int)) (=> (and (and (not .loc.4) (not .loc.3)) (and (and (and (and (and (and (and (and (= D1 C) (not C1)) (= E1 E)) (= I1 N)) (= G1 J)) (= J1 P)) (= K1 R)) (= F1 H)) (= H1 L))) (state |A| |D1| |C| |E1| |E| |F| |F1| |H| |G1| |J| |H1| |L| |I1| |N| |J1| |P| |K1| |R| |S| |T| |U| |V| |W| |X| |Y| |Z| |A1| |B1| |C1| |.loc.3| |.loc.4|))))
(assert (forall ((|A| Int) (|D1| Int) (|C| Int) (|E1| (Array Int Int)) (|E| (Array Int Int)) (|F| (Array Int Int)) (|F1| Int) (|H| Int) (|G1| Int) (|J| Int) (|H1| Int) (|L| Int) (|I1| (Array Int Int)) (|N| (Array Int Int)) (|J1| Int) (|P| Int) (|K1| Int) (|R| Int) (|S| Int) (|T| Int) (|U| Int) (|V| Int) (|W| Int) (|X| Int) (|Y| Int) (|Z| Int) (|A1| Int) (|B1| Int) (|C1| Bool) (|.loc.3| Bool) (|.loc.4| Bool) (|.x.100| Int) (|.x.102| Int) (|.x.104| (Array Int Int)) (|.x.105| (Array Int Int)) (|.x.107| Int) (|.x.109| Int) (|.x.111| Int) (|.x.113| (Array Int Int)) (|.x.117| Int) (|.x.115| Int) (|.loc.5| Bool) (|.loc.6| Bool) (|.x.119| Int) (|.x.125| Int) (|.x.122| Int) (|.x.124| Int) (|.x.127| Int) (|.x.101| Int) (|.x.121| Int) (|.x.110| Int) (|.x.118| Int) (|.x.126| Int) (|.x.114| Int) (|.x.106| Int) (|.x.120| Int) (|C1_3| Bool) (|.x.112| (Array Int Int)) (|.x.103| (Array Int Int)) (|.x.116| Int) (|.x.108| Int) (|.x.123| Int)) (=> (and (state |A| |D1| |C| |E1| |E| |F| |F1| |H| |G1| |J| |H1| |L| |I1| |N| |J1| |P| |K1| |R| |S| |T| |U| |V| |W| |X| |Y| |Z| |A1| |B1| |C1| |.loc.3| |.loc.4|) (let ((.def_42 (not .loc.3))) (let ((.def_98 (= .x.119 .x.125))) (let ((.def_102 (= .x.122 .x.124))) (let ((.def_128 (and (= .x.122 .x.127) (and (= .x.101 .x.121) (and (= .x.110 .x.118) (and (= .x.124 .x.126) (and (= .x.127 .x.114) (and (= .x.125 .x.118) (and (= .x.119 .x.121) (= .x.126 .x.106)))))))))) (let ((.def_131 (= U .x.120))) (let ((.def_143 (store (store E1 0 0) .x.106 1))) (let ((.def_163 (= .x.106 0))) (let ((.def_184 (or C1 (and (= (select (select F .x.114) .x.101) 0) (and (= (select (select F .x.106) .x.110) 0) (and (= (select .def_143 .x.114) 0) (and (and (and (and (and (and (and (and (and (and (not (<= A .x.114)) (not (<= A .x.106))) (= (store (store I1 .x.106 4) .x.114 4) .x.112)) (= (store .def_143 .x.114 1) .x.103)) (= .x.101 0)) (not .def_163)) (not (= .x.114 0))) (= .x.116 0)) (= .x.110 0)) (= .x.108 0)) (= (ite .def_163 0 (select E1 .x.106)) 0)))))))) (let ((.def_211 (= C1 C1_3))) (let ((.def_239 (not .loc.6))) (and (and (not .loc.4) (and (= A .x.100) (and (= C .x.102) (and (= E .x.104) (and (= F .x.105) (and (= H .x.107) (and (= J .x.109) (and (= L .x.111) (and (= N .x.113) (and (= R .x.117) (= P .x.115))))))))))) (or (or (and (and (not .loc.5) .loc.6) (or (and .def_42 (and (or (not .def_98) (or C1 (not .def_102))) (and (or C1 .def_128) (and (and .def_131 C1_3) .def_184)))) (and (or C1 (= .x.123 0)) (and (= D1 .x.101) (and (= E1 .x.103) (and (= F1 .x.106) (and (= G1 .x.108) (and (= H1 .x.110) (and (= I1 .x.112) (and (= J1 .x.114) (and (= K1 .x.116) (and (= S .x.118) (and (= T .x.119) (and (= V .x.121) (and (= W .x.122) (and (= Y .x.124) (and (= Z .x.125) (and (= A1 .x.126) (and (= B1 .x.127) (and (and .loc.3 (or C1_3 (= .x.120 .x.123))) .def_211)))))))))))))))))))) (and (or .def_128 C1_3) (and (or C1_3 (and .def_98 .def_102)) (and (and .def_211 (and .loc.5 (and .def_42 (and .def_131 .def_184)))) .def_239)))) (and .def_239 (and .loc.5 (and .def_42 (and .def_184 (and .def_131 (and C1 C1_3))))))))))))))))))) (state |.x.100| |.x.101| |.x.102| |.x.103| |.x.104| |.x.105| |.x.106| |.x.107| |.x.108| |.x.109| |.x.110| |.x.111| |.x.112| |.x.113| |.x.114| |.x.115| |.x.116| |.x.117| |.x.118| |.x.119| |.x.120| |.x.121| |.x.122| |.x.123| |.x.124| |.x.125| |.x.126| |.x.127| |C1_3| |.loc.5| |.loc.6|))))
(assert (forall ((|A| Int) (|D1| Int) (|C| Int) (|E1| (Array Int Int)) (|E| (Array Int Int)) (|F| (Array Int Int)) (|F1| Int) (|H| Int) (|G1| Int) (|J| Int) (|H1| Int) (|L| Int) (|I1| (Array Int Int)) (|N| (Array Int Int)) (|J1| Int) (|P| Int) (|K1| Int) (|R| Int) (|S| Int) (|T| Int) (|U| Int) (|V| Int) (|W| Int) (|X| Int) (|Y| Int) (|Z| Int) (|A1| Int) (|B1| Int) (|C1| Bool) (|.loc.3| Bool) (|.loc.4| Bool) (|.x.100| Int) (|.x.102| Int) (|.x.104| (Array Int Int)) (|.x.105| (Array Int Int)) (|.x.107| Int) (|.x.109| Int) (|.x.111| Int) (|.x.113| (Array Int Int)) (|.x.117| Int) (|.x.115| Int) (|.loc.5| Bool) (|.loc.6| Bool) (|.x.119| Int) (|.x.125| Int) (|.x.122| Int) (|.x.124| Int) (|.x.127| Int) (|.x.101| Int) (|.x.121| Int) (|.x.110| Int) (|.x.118| Int) (|.x.126| Int) (|.x.114| Int) (|.x.106| Int) (|.x.120| Int) (|C1_3| Bool) (|.x.112| (Array Int Int)) (|.x.103| (Array Int Int)) (|.x.116| Int) (|.x.108| Int) (|.x.123| Int)) (=> (state |A| |D1| |C| |E1| |E| |F| |F1| |H| |G1| |J| |H1| |L| |I1| |N| |J1| |P| |K1| |R| |S| |T| |U| |V| |W| |X| |Y| |Z| |A1| |B1| |C1| |.loc.3| |.loc.4|) (not (and C1 (and .loc.4 (not .loc.3)))))))
(check-sat)
